HUN,8,6,376
0,21,1,12,2,29,4,30,3,12,5,1
0,28,2,20,1,29,3,1,5,16,4,21
1,27,2,28,0,5,4,3,3,10,5,2
0,26,2,25,1,17,3,5,4,2,5,30
2,30,0,14,1,8,3,20,5,11,4,19
1,24,2,12,0,15,4,3,3,5,5,2
2,7,1,9,0,22,5,27,3,3,4,2
1,26,0,2,2,3,5,30,4,6,3,21
